# Solution for model r10_t18_m4_9
# Finished Task: 18 / 18
# Makespan: 542.0, Total Distance: 241.0, Total Time: 5.2435
# R O S F
0 0 10 0.0 0.0
1 1 17 0.0 0.0
2 2 20 0.0 0.0
3 3 11 0.0 0.0
4 4 21 30.0 30.0
5 5 25 0.0 0.0
6 6 26 0.0 0.0
7 7 22 8.0 8.0
8 8 23 0.0 0.0
9 9 -1 0.0 0.0
10 0 -1 477.0 506.0
11 3 27 439.0 477.0
12 6 -1 416.0 439.0
13 7 -1 392.0 416.0
14 4 -1 377.0 413.0
15 8 19 384.0 423.0
16 1 -1 516.0 542.0
17 1 16 228.0 261.0
18 5 -1 317.0 343.0
19 8 -1 506.0 542.0
20 2 -1 317.0 339.0
21 4 14 105.0 142.0
22 7 13 159.0 185.0
23 8 24 317.0 352.0
24 8 15 352.0 372.0
25 5 18 295.0 317.0
26 6 12 339.0 377.0
27 3 -1 506.0 529.0
